p cnf 222 408
-7 -139 -73 0 
-73 -140 -80 0 
-7 -141 -73 0 
-73 -142 -80 0 
-7 -143 -73 0 
-73 -144 -80 0 
-7 -145 -73 0 
-73 -146 -80 0 
-7 -147 -73 0 
-73 -148 -80 0 
-7 -149 -73 0 
-73 -150 -80 0 
-14 -151 -81 0 
-81 -152 -88 0 
-14 -153 -81 0 
-81 -154 -88 0 
-14 -155 -81 0 
-81 -156 -88 0 
-14 -157 -81 0 
-81 -158 -88 0 
-14 -159 -81 0 
-81 -160 -88 0 
-14 -161 -81 0 
-81 -162 -88 0 
-21 -163 -89 0 
-89 -164 -96 0 
-21 -165 -89 0 
-89 -166 -96 0 
-21 -167 -89 0 
-89 -168 -96 0 
-21 -169 -89 0 
-89 -170 -96 0 
-21 -171 -89 0 
-89 -172 -96 0 
-21 -173 -89 0 
-89 -174 -96 0 
-28 -175 -97 0 
-97 -176 -104 0 
-28 -177 -97 0 
-97 -178 -104 0 
-28 -179 -97 0 
-97 -180 -104 0 
-28 -181 -97 0 
-97 -182 -104 0 
-28 -183 -97 0 
-97 -184 -104 0 
-28 -185 -97 0 
-97 -186 -104 0 
-35 -187 -105 0 
-105 -188 -112 0 
-35 -189 -105 0 
-105 -190 -112 0 
-35 -191 -105 0 
-105 -192 -112 0 
-35 -193 -105 0 
-105 -194 -112 0 
-35 -195 -105 0 
-105 -196 -112 0 
-35 -197 -105 0 
-105 -198 -112 0 
-42 -199 -113 0 
-113 -200 -120 0 
-42 -201 -113 0 
-113 -202 -120 0 
-42 -203 -113 0 
-113 -204 -120 0 
-42 -205 -113 0 
-113 -206 -120 0 
-42 -207 -113 0 
-113 -208 -120 0 
-42 -209 -113 0 
-113 -210 -120 0 
-49 -211 -121 0 
-121 -212 -123 0 
-51 -213 -124 0 
-124 -214 -126 0 
-53 -215 -127 0 
-127 -216 -129 0 
-55 -217 -130 0 
-130 -218 -132 0 
-57 -219 -133 0 
-133 -220 -135 0 
-59 -221 -136 0 
-136 -222 -138 0 
-1 61 0 
1 -61 0 
-61 62 0 
61 -62 0 
-2 63 0 
2 -63 0 
-63 64 0 
63 -64 0 
-3 65 0 
3 -65 0 
-65 66 0 
65 -66 0 
-4 67 0 
4 -67 0 
-67 68 0 
67 -68 0 
-5 69 0 
5 -69 0 
-69 70 0 
69 -70 0 
-6 71 0 
6 -71 0 
-71 72 0 
71 -72 0 
-7 -139 8 0 
-8 7 0 
-8 139 0 
-7 -141 9 0 
-9 7 0 
-9 141 0 
-7 -143 10 0 
-10 7 0 
-10 143 0 
-7 -145 11 0 
-11 7 0 
-11 145 0 
-7 -147 12 0 
-12 7 0 
-12 147 0 
-7 -149 13 0 
-13 7 0 
-13 149 0 
8 9 10 11 12 13 -7 73 0 
7 -73 0 
-73 -140 74 0 
-74 73 0 
-74 140 0 
-73 -142 75 0 
-75 73 0 
-75 142 0 
-73 -144 76 0 
-76 73 0 
-76 144 0 
-73 -146 77 0 
-77 73 0 
-77 146 0 
-73 -148 78 0 
-78 73 0 
-78 148 0 
-73 -150 79 0 
-79 73 0 
-79 150 0 
74 75 76 77 78 79 -73 80 0 
73 -80 0 
-14 -151 15 0 
-15 14 0 
-15 151 0 
-14 -153 16 0 
-16 14 0 
-16 153 0 
-14 -155 17 0 
-17 14 0 
-17 155 0 
-14 -157 18 0 
-18 14 0 
-18 157 0 
-14 -159 19 0 
-19 14 0 
-19 159 0 
-14 -161 20 0 
-20 14 0 
-20 161 0 
15 16 17 18 19 20 -14 81 0 
14 -81 0 
-81 -152 82 0 
-82 81 0 
-82 152 0 
-81 -154 83 0 
-83 81 0 
-83 154 0 
-81 -156 84 0 
-84 81 0 
-84 156 0 
-81 -158 85 0 
-85 81 0 
-85 158 0 
-81 -160 86 0 
-86 81 0 
-86 160 0 
-81 -162 87 0 
-87 81 0 
-87 162 0 
82 83 84 85 86 87 -81 88 0 
81 -88 0 
-21 -163 22 0 
-22 21 0 
-22 163 0 
-21 -165 23 0 
-23 21 0 
-23 165 0 
-21 -167 24 0 
-24 21 0 
-24 167 0 
-21 -169 25 0 
-25 21 0 
-25 169 0 
-21 -171 26 0 
-26 21 0 
-26 171 0 
-21 -173 27 0 
-27 21 0 
-27 173 0 
22 23 24 25 26 27 -21 89 0 
21 -89 0 
-89 -164 90 0 
-90 89 0 
-90 164 0 
-89 -166 91 0 
-91 89 0 
-91 166 0 
-89 -168 92 0 
-92 89 0 
-92 168 0 
-89 -170 93 0 
-93 89 0 
-93 170 0 
-89 -172 94 0 
-94 89 0 
-94 172 0 
-89 -174 95 0 
-95 89 0 
-95 174 0 
90 91 92 93 94 95 -89 96 0 
89 -96 0 
-28 -175 29 0 
-29 28 0 
-29 175 0 
-28 -177 30 0 
-30 28 0 
-30 177 0 
-28 -179 31 0 
-31 28 0 
-31 179 0 
-28 -181 32 0 
-32 28 0 
-32 181 0 
-28 -183 33 0 
-33 28 0 
-33 183 0 
-28 -185 34 0 
-34 28 0 
-34 185 0 
29 30 31 32 33 34 -28 97 0 
28 -97 0 
-97 -176 98 0 
-98 97 0 
-98 176 0 
-97 -178 99 0 
-99 97 0 
-99 178 0 
-97 -180 100 0 
-100 97 0 
-100 180 0 
-97 -182 101 0 
-101 97 0 
-101 182 0 
-97 -184 102 0 
-102 97 0 
-102 184 0 
-97 -186 103 0 
-103 97 0 
-103 186 0 
98 99 100 101 102 103 -97 104 0 
97 -104 0 
-35 -187 36 0 
-36 35 0 
-36 187 0 
-35 -189 37 0 
-37 35 0 
-37 189 0 
-35 -191 38 0 
-38 35 0 
-38 191 0 
-35 -193 39 0 
-39 35 0 
-39 193 0 
-35 -195 40 0 
-40 35 0 
-40 195 0 
-35 -197 41 0 
-41 35 0 
-41 197 0 
36 37 38 39 40 41 -35 105 0 
35 -105 0 
-105 -188 106 0 
-106 105 0 
-106 188 0 
-105 -190 107 0 
-107 105 0 
-107 190 0 
-105 -192 108 0 
-108 105 0 
-108 192 0 
-105 -194 109 0 
-109 105 0 
-109 194 0 
-105 -196 110 0 
-110 105 0 
-110 196 0 
-105 -198 111 0 
-111 105 0 
-111 198 0 
106 107 108 109 110 111 -105 112 0 
105 -112 0 
-42 -199 43 0 
-43 42 0 
-43 199 0 
-42 -201 44 0 
-44 42 0 
-44 201 0 
-42 -203 45 0 
-45 42 0 
-45 203 0 
-42 -205 46 0 
-46 42 0 
-46 205 0 
-42 -207 47 0 
-47 42 0 
-47 207 0 
-42 -209 48 0 
-48 42 0 
-48 209 0 
43 44 45 46 47 48 -42 113 0 
42 -113 0 
-113 -200 114 0 
-114 113 0 
-114 200 0 
-113 -202 115 0 
-115 113 0 
-115 202 0 
-113 -204 116 0 
-116 113 0 
-116 204 0 
-113 -206 117 0 
-117 113 0 
-117 206 0 
-113 -208 118 0 
-118 113 0 
-118 208 0 
-113 -210 119 0 
-119 113 0 
-119 210 0 
114 115 116 117 118 119 -113 120 0 
113 -120 0 
-49 -211 50 0 
-50 49 0 
-50 211 0 
50 -49 121 0 
49 -121 0 
-121 -212 122 0 
-122 121 0 
-122 212 0 
122 -121 123 0 
121 -123 0 
-51 -213 52 0 
-52 51 0 
-52 213 0 
52 -51 124 0 
51 -124 0 
-124 -214 125 0 
-125 124 0 
-125 214 0 
125 -124 126 0 
124 -126 0 
-53 -215 54 0 
-54 53 0 
-54 215 0 
54 -53 127 0 
53 -127 0 
-127 -216 128 0 
-128 127 0 
-128 216 0 
128 -127 129 0 
127 -129 0 
-55 -217 56 0 
-56 55 0 
-56 217 0 
56 -55 130 0 
55 -130 0 
-130 -218 131 0 
-131 130 0 
-131 218 0 
131 -130 132 0 
130 -132 0 
-57 -219 58 0 
-58 57 0 
-58 219 0 
58 -57 133 0 
57 -133 0 
-133 -220 134 0 
-134 133 0 
-134 220 0 
134 -133 135 0 
133 -135 0 
-59 -221 60 0 
-60 59 0 
-60 221 0 
60 -59 136 0 
59 -136 0 
-136 -222 137 0 
-137 136 0 
-137 222 0 
137 -136 138 0 
136 -138 0 
